209
2821
147
0 2
0 5
0 13
0 15
0 19
0 37
0 38
0 104
0 114
1 7
1 11
1 17
1 95
1 112
1 148
2 5
2 13
2 15
2 19
2 23
2 24
2 27
2 30
2 32
2 37
2 38
2 39
2 40
2 48
2 52
2 85
2 104
2 114
3 4
3 6
3 8
3 9
3 10
3 12
3 14
3 16
3 18
3 26
3 28
3 29
3 31
3 43
3 45
3 57
3 70
3 71
3 75
3 79
3 86
3 90
3 96
3 97
3 98
3 99
3 102
3 103
3 106
3 107
3 108
3 109
3 120
3 133
3 135
3 142
3 153
3 169
3 183
3 196
4 6
4 8
4 9
4 10
4 12
4 14
4 16
4 18
4 26
4 28
4 29
4 31
4 43
4 45
4 57
4 90
4 96
4 97
4 98
4 99
4 102
4 103
4 106
4 107
4 108
4 109
4 135
4 153
4 169
4 183
4 196
5 13
5 15
5 19
5 23
5 24
5 27
5 30
5 32
5 37
5 38
5 39
5 40
5 48
5 52
5 56
5 58
5 59
5 61
5 63
5 66
5 85
5 104
5 114
5 151
5 154
5 180
6 8
6 9
6 10
6 12
6 14
6 16
6 18
6 26
6 28
6 29
6 31
6 43
6 45
6 57
6 62
6 78
6 90
6 100
6 101
6 105
6 110
6 111
6 113
6 115
6 117
6 120
6 121
6 123
6 125
6 127
6 130
6 132
6 133
6 136
6 137
6 138
6 139
6 142
6 146
6 158
6 159
6 172
6 178
6 182
6 185
6 202
7 11
7 17
7 25
7 33
7 34
7 41
7 42
7 44
7 46
7 47
7 49
7 50
7 51
7 95
7 112
7 148
8 9
8 10
8 12
8 14
8 16
8 18
8 26
8 28
8 29
8 31
8 43
8 45
8 57
8 90
8 106
8 107
8 108
8 109
8 135
8 153
8 169
8 183
8 196
9 10
9 12
9 14
9 16
9 18
9 26
9 28
9 29
9 31
9 43
9 45
9 57
9 90
10 12
10 14
10 16
10 18
10 26
10 28
10 29
10 31
10 43
10 45
10 57
10 78
10 90
10 100
10 101
10 105
10 110
10 111
10 113
10 115
11 17
11 25
11 30
11 33
11 34
11 41
11 42
11 44
11 46
11 47
11 49
11 50
11 51
11 61
11 76
11 77
11 80
11 89
11 92
11 95
11 99
11 112
11 148
11 186
11 203
12 14
12 16
12 18
12 26
12 28
12 29
12 31
12 43
12 45
12 57
12 62
12 78
12 90
12 100
12 101
12 105
12 110
12 111
12 113
12 115
12 117
12 120
12 121
12 123
12 125
12 127
12 158
12 159
12 172
12 178
12 182
12 185
12 202
13 15
13 19
13 23
13 24
13 27
13 30
13 32
13 37
13 38
13 39
13 40
13 48
13 52
13 60
13 62
13 64
13 65
13 67
13 75
13 79
13 85
13 102
13 104
13 114
13 142
14 16
14 18
14 26
14 28
14 29
14 31
14 43
14 45
14 57
14 78
14 90
14 100
14 101
14 105
14 110
14 111
14 113
14 115
14 118
14 119
14 134
14 143
14 144
14 164
14 165
14 173
14 187
14 205
15 19
15 23
15 24
15 27
15 30
15 32
15 37
15 38
15 39
15 40
15 48
15 52
15 60
15 62
15 64
15 65
15 67
15 75
15 79
15 85
15 102
15 104
15 114
15 142
15 153
15 155
15 157
15 158
15 160
15 162
16 18
16 26
16 28
16 29
16 31
16 43
16 45
16 57
16 78
16 90
16 92
16 100
16 101
16 105
16 110
16 111
16 113
16 115
16 122
16 124
16 128
16 129
16 145
16 208
17 25
17 33
17 34
17 41
17 42
17 44
17 46
17 47
17 49
17 50
17 51
17 63
17 66
17 82
17 91
17 93
17 95
17 103
17 112
17 146
17 148
17 156
17 161
17 191
17 196
17 199
17 201
17 207
18 26
18 28
18 29
18 31
18 43
18 45
18 57
18 78
18 90
18 92
18 100
18 101
18 105
18 110
18 111
18 113
18 115
18 122
18 124
18 128
18 129
18 145
18 175
18 177
18 179
18 180
18 181
18 186
18 187
18 188
18 189
18 208
19 23
19 24
19 27
19 30
19 32
19 37
19 38
19 39
19 40
19 48
19 52
19 60
19 62
19 64
19 65
19 67
19 75
19 79
19 85
19 102
19 104
19 114
19 142
19 152
19 156
19 159
19 161
20 22
20 25
20 33
20 34
20 35
20 37
20 38
20 43
20 45
20 55
20 69
20 70
20 81
20 90
20 130
20 149
20 175
21 26
21 28
21 29
21 31
21 53
21 57
21 147
21 148
21 164
21 190
22 25
22 33
22 34
22 55
22 70
22 149
23 24
23 27
23 30
23 32
23 38
23 39
23 40
23 48
23 52
23 85
23 114
24 27
24 30
24 32
24 38
24 39
24 40
24 48
24 52
24 56
24 58
24 59
24 61
24 63
24 66
24 85
24 114
24 151
24 154
24 180
25 33
25 34
25 41
25 42
25 44
25 46
25 47
25 49
25 50
25 51
25 55
25 70
25 86
25 87
25 88
25 112
25 120
25 121
25 122
25 125
25 133
25 136
25 138
25 139
25 142
25 149
25 168
25 197
25 198
26 28
26 29
26 31
26 43
26 45
26 53
26 57
26 90
26 106
26 107
26 108
26 109
26 135
26 147
26 148
26 153
26 164
26 169
26 183
26 190
26 196
27 30
27 32
27 38
27 39
27 40
27 42
27 48
27 52
27 56
27 58
27 59
27 61
27 63
27 66
27 68
27 73
27 74
27 78
27 85
27 88
27 114
27 125
27 138
27 139
27 151
27 154
27 168
27 180
27 197
27 198
28 29
28 31
28 43
28 45
28 53
28 57
28 90
28 147
28 148
28 164
28 190
29 31
29 43
29 45
29 53
29 57
29 78
29 90
29 100
29 101
29 105
29 110
29 111
29 113
29 115
29 147
29 148
29 164
29 190
30 32
30 38
30 39
30 40
30 44
30 46
30 47
30 48
30 52
30 56
30 58
30 59
30 61
30 63
30 66
30 69
30 72
30 76
30 77
30 80
30 85
30 89
30 92
30 96
30 98
30 99
30 103
30 108
30 112
30 114
30 151
30 154
30 180
30 186
30 203
31 43
31 45
31 53
31 57
31 62
31 78
31 90
31 100
31 101
31 105
31 110
31 111
31 113
31 115
31 117
31 120
31 121
31 123
31 125
31 127
31 147
31 148
31 158
31 159
31 164
31 172
31 178
31 182
31 185
31 190
31 202
32 38
32 39
32 40
32 48
32 52
32 60
32 62
32 64
32 65
32 67
32 75
32 79
32 85
32 102
32 114
32 142
33 34
33 41
33 42
33 44
33 46
33 47
33 49
33 50
33 51
33 55
33 63
33 66
33 70
33 82
33 91
33 93
33 103
33 112
33 146
33 149
33 156
33 161
33 191
33 196
33 199
33 201
33 207
34 41
34 42
34 44
34 46
34 47
34 49
34 50
34 51
34 55
34 63
34 66
34 70
34 82
34 91
34 93
34 103
34 112
34 146
34 149
35 37
35 38
35 43
35 45
35 69
35 81
35 90
35 130
35 175
36 39
36 40
36 48
36 52
36 83
36 85
36 117
36 132
36 192
37 38
37 43
37 45
37 69
37 81
37 90
37 104
37 114
37 130
37 175
38 39
38 40
38 43
38 45
38 48
38 52
38 69
38 81
38 85
38 90
38 104
38 114
38 130
38 175
39 40
39 48
39 52
39 83
39 85
39 114
39 117
39 132
39 192
40 48
40 52
40 56
40 58
40 59
40 61
40 63
40 66
40 83
40 85
40 114
40 117
40 132
40 151
40 154
40 180
40 192
41 42
41 44
41 46
41 47
41 49
41 50
41 51
41 112
42 44
42 46
42 47
42 49
42 50
42 51
42 58
42 59
42 68
42 73
42 74
42 78
42 86
42 87
42 88
42 112
42 120
42 121
42 122
42 125
42 133
42 136
42 138
42 139
42 142
42 154
42 168
42 197
42 198
43 45
43 57
43 69
43 81
43 90
43 106
43 107
43 108
43 109
43 130
43 135
43 153
43 169
43 175
43 183
43 196
44 46
44 47
44 49
44 50
44 51
44 60
44 61
44 76
44 77
44 80
44 89
44 92
44 99
44 112
44 116
44 126
44 131
44 134
44 135
44 140
44 141
44 143
44 144
44 145
44 153
44 155
44 163
44 169
44 170
44 176
44 183
44 186
44 191
44 196
44 199
44 203
45 57
45 69
45 81
45 90
45 130
45 175
46 47
46 49
46 50
46 51
46 61
46 76
46 77
46 80
46 89
46 92
46 99
46 112
46 131
46 134
46 135
46 140
46 141
46 143
46 144
46 145
46 186
46 203
47 49
47 50
47 51
47 61
47 76
47 77
47 80
47 89
47 92
47 99
47 112
47 186
47 203
48 52
48 60
48 62
48 64
48 65
48 67
48 75
48 79
48 83
48 85
48 102
48 114
48 117
48 132
48 142
48 192
49 50
49 51
49 63
49 66
49 82
49 91
49 93
49 103
49 112
49 146
49 159
49 187
49 200
49 202
49 205
49 206
49 208
50 51
50 63
50 66
50 82
50 91
50 93
50 103
50 112
50 146
50 156
50 161
50 191
50 196
50 199
50 201
50 207
51 63
51 66
51 82
51 91
51 93
51 103
51 112
51 146
52 60
52 62
52 64
52 65
52 67
52 75
52 79
52 83
52 85
52 102
52 114
52 117
52 132
52 142
52 152
52 156
52 159
52 161
52 192
53 54
53 55
53 57
53 70
53 82
53 118
53 147
53 148
53 149
53 164
53 165
53 190
54 55
54 57
54 70
54 82
54 118
54 147
54 148
54 149
54 164
54 165
54 190
55 57
55 70
55 82
55 118
55 147
55 148
55 149
55 164
55 165
55 190
56 58
56 59
56 61
56 63
56 66
56 151
56 154
56 180
57 70
57 82
57 90
57 106
57 107
57 108
57 109
57 118
57 135
57 147
57 148
57 149
57 153
57 164
57 165
57 169
57 183
57 190
57 196
58 59
58 61
58 63
58 66
58 68
58 73
58 74
58 78
58 88
58 125
58 138
58 139
58 151
58 154
58 168
58 180
58 197
58 198
59 61
59 63
59 66
59 68
59 73
59 74
59 78
59 88
59 94
59 95
59 100
59 101
59 125
59 138
59 139
59 151
59 154
59 168
59 180
59 197
59 198
60 62
60 64
60 65
60 67
60 75
60 79
60 80
60 89
60 102
60 114
60 116
60 126
60 131
60 135
60 140
60 142
60 153
60 155
60 157
60 158
60 159
60 160
60 162
60 163
60 169
60 170
60 171
60 172
60 176
60 183
60 191
60 196
60 199
60 200
60 202
60 208
61 63
61 66
61 69
61 72
61 76
61 77
61 80
61 89
61 92
61 96
61 98
61 99
61 103
61 108
61 112
61 151
61 154
61 180
61 186
61 203
62 64
62 65
62 67
62 75
62 78
62 79
62 102
62 111
62 114
62 117
62 120
62 121
62 123
62 125
62 127
62 142
62 153
62 155
62 157
62 158
62 159
62 160
62 162
62 163
62 169
62 170
62 171
62 172
62 178
62 182
62 185
62 200
62 202
62 208
63 66
63 69
63 72
63 76
63 77
63 82
63 91
63 93
63 96
63 98
63 99
63 103
63 108
63 128
63 146
63 151
63 154
63 179
63 180
63 188
63 190
63 194
63 204
64 65
64 67
64 75
64 79
64 102
64 114
64 142
65 67
65 75
65 79
65 102
65 114
65 142
65 153
65 155
65 157
65 158
65 160
65 162
66 69
66 72
66 76
66 77
66 82
66 91
66 93
66 96
66 98
66 99
66 103
66 108
66 146
66 151
66 154
66 159
66 180
66 187
66 200
66 202
66 205
66 206
66 208
67 75
67 79
67 102
67 114
67 142
67 152
67 156
67 159
67 161
68 73
68 74
68 78
68 80
68 88
68 94
68 95
68 100
68 101
68 104
68 112
68 114
68 116
68 125
68 131
68 138
68 139
68 154
68 163
68 168
68 176
68 191
68 197
68 198
69 72
69 76
69 77
69 81
69 83
69 84
69 85
69 90
69 96
69 98
69 99
69 103
69 108
69 117
69 130
69 132
69 151
69 166
69 175
69 177
69 178
69 192
69 193
70 71
70 75
70 79
70 82
70 86
70 102
70 106
70 118
70 120
70 133
70 142
70 147
70 148
70 149
70 164
70 165
70 190
71 75
71 79
71 86
71 102
71 106
71 120
71 133
71 142
72 76
72 77
72 96
72 98
72 99
72 103
72 108
72 151
73 74
73 78
73 88
73 125
73 138
73 139
73 154
73 168
73 197
73 198
74 78
74 88
74 94
74 95
74 100
74 101
74 125
74 138
74 139
74 154
74 168
74 197
74 198
75 79
75 86
75 102
75 106
75 114
75 120
75 133
75 142
75 153
75 155
75 157
75 158
75 159
75 160
75 162
75 163
75 169
75 170
75 171
75 172
75 200
75 202
75 208
76 77
76 80
76 89
76 92
76 96
76 98
76 99
76 103
76 108
76 112
76 131
76 134
76 135
76 140
76 141
76 143
76 144
76 145
76 151
76 186
76 203
77 80
77 89
77 92
77 96
77 98
77 99
77 103
77 108
77 112
77 151
77 186
77 203
78 88
78 94
78 95
78 100
78 101
78 105
78 110
78 111
78 113
78 115
78 117
78 120
78 121
78 123
78 125
78 127
78 138
78 139
78 154
78 158
78 159
78 168
78 172
78 178
78 182
78 185
78 197
78 198
78 202
79 86
79 102
79 106
79 114
79 120
79 133
79 142
79 152
79 156
79 159
79 161
80 89
80 92
80 94
80 95
80 99
80 104
80 112
80 114
80 116
80 126
80 131
80 134
80 135
80 140
80 141
80 143
80 144
80 145
80 153
80 155
80 163
80 169
80 170
80 176
80 183
80 186
80 191
80 196
80 199
80 203
81 83
81 84
81 85
81 90
81 96
81 117
81 130
81 132
81 166
81 175
81 177
81 178
81 192
81 193
82 91
82 93
82 103
82 105
82 118
82 119
82 128
82 134
82 146
82 147
82 148
82 149
82 150
82 151
82 154
82 164
82 165
82 179
82 180
82 188
82 190
82 194
82 204
83 84
83 85
83 90
83 96
83 117
83 130
83 132
83 166
83 175
83 177
83 178
83 192
83 193
84 85
84 90
84 96
84 117
84 130
84 132
84 166
84 175
84 177
84 178
84 192
84 193
85 90
85 96
85 114
85 117
85 130
85 132
85 166
85 175
85 177
85 178
85 192
85 193
86 87
86 88
86 102
86 106
86 120
86 121
86 122
86 125
86 133
86 136
86 138
86 139
86 142
86 168
86 197
86 198
87 88
87 120
87 121
87 122
87 125
87 133
87 136
87 138
87 139
87 142
87 168
87 197
87 198
88 120
88 121
88 122
88 125
88 133
88 136
88 138
88 139
88 142
88 154
88 168
88 197
88 198
89 92
89 99
89 112
89 116
89 126
89 131
89 134
89 135
89 140
89 141
89 143
89 144
89 145
89 153
89 155
89 163
89 169
89 170
89 176
89 183
89 186
89 191
89 196
89 199
89 203
90 96
90 117
90 130
90 132
90 166
90 175
90 177
90 178
90 192
90 193
91 93
91 103
91 128
91 146
91 179
91 180
91 188
91 190
91 194
91 204
92 99
92 101
92 112
92 122
92 124
92 128
92 129
92 131
92 134
92 135
92 140
92 141
92 143
92 144
92 145
92 186
92 203
92 208
93 103
93 146
94 95
94 100
94 101
94 104
94 112
94 114
94 116
94 131
94 139
94 163
94 176
94 191
94 198
95 100
95 101
95 104
95 112
95 114
95 116
95 131
95 139
95 148
95 163
95 176
95 191
95 198
96 97
96 98
96 99
96 102
96 103
96 106
96 107
96 108
96 117
96 130
96 132
96 135
96 151
96 166
96 175
96 177
96 178
96 192
96 193
97 98
97 99
97 102
97 103
97 106
97 107
97 108
97 135
98 99
98 102
98 103
98 106
98 107
98 108
98 135
98 151
99 102
99 103
99 106
99 107
99 108
99 112
99 135
99 151
99 186
99 203
100 101
100 105
100 110
100 111
100 113
100 115
100 118
100 119
100 134
100 139
100 143
100 144
100 198
101 105
101 110
101 111
101 113
101 115
101 122
101 124
101 128
101 129
101 139
101 145
101 198
101 208
102 103
102 106
102 107
102 108
102 114
102 120
102 133
102 135
102 142
102 152
102 156
102 159
102 161
103 106
103 107
103 108
103 135
103 146
103 151
104 112
104 114
104 116
104 131
104 163
104 176
104 191
105 110
105 111
105 113
105 115
105 118
105 119
105 134
105 143
105 144
105 147
105 148
105 149
105 150
105 151
105 154
105 164
105 165
105 173
105 179
105 180
105 187
105 190
105 194
105 205
106 107
106 108
106 109
106 120
106 133
106 135
106 142
106 153
106 169
106 183
106 196
107 108
107 109
107 135
107 153
107 169
107 183
107 196
108 109
108 135
108 151
108 153
108 169
108 183
108 196
109 135
109 153
109 169
109 183
109 196
110 111
110 113
110 115
111 113
111 115
111 117
111 120
111 121
111 123
111 125
111 127
111 158
111 159
111 172
111 178
111 182
111 185
111 202
112 114
112 116
112 131
112 148
112 163
112 176
112 186
112 191
112 203
113 115
113 118
113 119
113 134
113 143
113 144
113 164
113 165
113 173
113 187
113 205
114 116
114 131
114 142
114 163
114 176
114 191
115 118
115 119
115 134
115 143
115 144
116 126
116 131
116 135
116 140
116 153
116 155
116 163
116 169
116 170
116 176
116 183
116 191
116 196
116 199
117 120
117 121
117 123
117 125
117 127
117 130
117 132
117 133
117 136
117 137
117 138
117 139
117 142
117 146
117 158
117 159
117 166
117 172
117 175
117 177
117 178
117 182
117 185
117 192
117 193
117 202
118 119
118 134
118 143
118 144
118 147
118 148
118 149
118 150
118 151
118 154
118 164
118 165
118 173
118 179
118 180
118 187
118 190
118 194
118 205
119 134
119 143
119 144
119 147
119 148
119 149
119 150
119 151
119 154
119 164
119 165
119 173
119 179
119 180
119 187
119 190
119 194
119 205
120 121
120 122
120 123
120 125
120 127
120 130
120 132
120 133
120 136
120 137
120 138
120 139
120 142
120 146
120 158
120 159
120 168
120 172
120 178
120 182
120 185
120 197
120 198
120 202
121 122
121 123
121 125
121 127
121 130
121 132
121 133
121 136
121 137
121 138
121 139
121 142
121 146
121 158
121 159
121 168
121 172
121 178
121 182
121 185
121 197
121 198
121 202
122 124
122 125
122 128
122 129
122 133
122 136
122 138
122 139
122 142
122 145
122 152
122 166
122 167
122 168
122 175
122 177
122 179
122 180
122 181
122 186
122 187
122 188
122 189
122 192
122 193
122 195
122 197
122 198
122 203
122 208
123 125
123 127
123 130
123 132
123 133
123 136
123 137
123 138
123 139
123 142
123 146
123 158
123 159
123 172
123 178
123 182
123 185
123 202
124 128
124 129
124 145
124 152
124 166
124 167
124 168
124 175
124 177
124 179
124 180
124 181
124 186
124 187
124 188
124 189
124 192
124 193
124 195
124 197
124 198
124 203
124 208
125 127
125 130
125 132
125 133
125 136
125 137
125 138
125 139
125 142
125 146
125 154
125 158
125 159
125 168
125 172
125 178
125 182
125 185
125 197
125 198
125 202
126 131
126 135
126 140
126 153
126 155
126 163
126 169
126 170
126 176
126 183
126 191
126 196
126 199
127 158
127 159
127 172
127 178
127 182
127 185
127 202
128 129
128 145
128 175
128 177
128 179
128 180
128 181
128 186
128 187
128 188
128 189
128 190
128 194
128 204
128 208
129 145
129 208
130 132
130 133
130 136
130 137
130 138
130 139
130 142
130 146
130 166
130 175
130 177
130 178
130 182
130 192
130 193
131 134
131 135
131 140
131 141
131 143
131 144
131 145
131 153
131 155
131 163
131 169
131 170
131 176
131 183
131 191
131 196
131 199
132 133
132 136
132 137
132 138
132 139
132 142
132 146
132 166
132 175
132 177
132 178
132 182
132 192
132 193
133 136
133 137
133 138
133 139
133 142
133 146
133 168
133 178
133 182
133 197
133 198
134 135
134 140
134 141
134 143
134 144
134 145
134 147
134 148
134 149
134 150
134 151
134 154
134 164
134 165
134 173
134 179
134 180
134 187
134 190
134 194
134 205
135 140
135 141
135 143
135 144
135 145
135 153
135 155
135 163
135 169
135 170
135 176
135 183
135 191
135 196
135 199
136 137
136 138
136 139
136 142
136 146
136 168
136 178
136 182
136 197
136 198
137 138
137 139
137 142
137 146
137 178
137 182
138 139
138 142
138 146
138 154
138 168
138 178
138 182
138 197
138 198
139 142
139 146
139 154
139 168
139 178
139 182
139 197
139 198
140 141
140 143
140 144
140 145
140 153
140 155
140 163
140 169
140 170
140 176
140 183
140 191
140 196
140 199
141 143
141 144
141 145
142 146
142 168
142 178
142 182
142 197
142 198
143 144
143 145
143 164
143 165
143 173
143 187
143 205
144 145
145 175
145 177
145 179
145 180
145 181
145 186
145 187
145 188
145 189
145 208
146 178
146 182
147 148
147 149
147 150
147 151
147 154
147 164
147 165
147 179
147 180
147 190
147 194
148 149
148 150
148 151
148 154
148 164
148 165
148 179
148 180
148 190
148 194
149 150
149 151
149 154
149 164
149 165
149 179
149 180
149 190
149 194
150 151
150 154
150 164
150 165
150 179
150 180
150 190
150 194
151 154
151 164
151 165
151 179
151 180
151 190
151 194
152 156
152 159
152 161
152 166
152 167
152 168
152 175
152 177
152 181
152 186
152 192
152 193
152 195
152 197
152 198
152 203
153 155
153 157
153 158
153 159
153 160
153 162
153 163
153 169
153 170
153 171
153 172
153 176
153 183
153 191
153 196
153 199
153 200
153 202
153 208
154 164
154 165
154 168
154 179
154 180
154 190
154 194
154 197
154 198
155 157
155 158
155 159
155 160
155 162
155 163
155 169
155 170
155 171
155 172
155 176
155 183
155 191
155 196
155 199
155 200
155 202
155 208
156 159
156 161
156 176
156 178
156 182
156 183
156 184
156 185
156 191
156 196
156 199
156 201
156 207
157 158
157 159
157 160
157 162
157 163
157 169
157 170
157 171
157 172
157 200
157 202
157 208
158 159
158 160
158 162
158 163
158 169
158 170
158 171
158 172
158 178
158 182
158 185
158 200
158 202
158 208
159 161
159 163
159 169
159 170
159 171
159 172
159 178
159 182
159 185
159 187
159 200
159 202
159 205
159 206
159 208
160 162
161 191
161 196
161 199
161 201
161 207
162 166
162 167
162 168
162 174
163 169
163 170
163 171
163 172
163 176
163 183
163 191
163 196
163 199
163 200
163 202
163 208
164 165
164 173
164 179
164 180
164 187
164 190
164 194
164 205
165 173
165 179
165 180
165 187
165 190
165 194
165 205
166 167
166 168
166 174
166 175
166 177
166 178
166 181
166 186
166 192
166 193
166 195
166 197
166 198
166 203
167 168
167 174
167 175
167 177
167 181
167 186
167 192
167 193
167 195
167 197
167 198
167 203
168 174
168 175
168 177
168 181
168 186
168 192
168 193
168 195
168 197
168 198
168 203
169 170
169 171
169 172
169 176
169 183
169 191
169 196
169 199
169 200
169 202
169 208
170 171
170 172
170 176
170 183
170 191
170 196
170 199
170 200
170 202
170 208
171 172
171 200
171 202
171 208
172 178
172 182
172 185
172 200
172 202
172 208
173 187
173 205
175 177
175 178
175 179
175 180
175 181
175 186
175 187
175 188
175 189
175 192
175 193
175 195
175 197
175 198
175 203
176 178
176 182
176 183
176 184
176 185
176 191
176 196
176 199
176 201
177 178
177 179
177 180
177 181
177 186
177 187
177 188
177 189
177 192
177 193
177 195
177 197
177 198
177 203
178 182
178 183
178 184
178 185
178 191
178 192
178 193
178 196
178 199
178 201
178 202
179 180
179 181
179 186
179 187
179 188
179 189
179 190
179 194
179 204
180 181
180 186
180 187
180 188
180 189
180 190
180 194
180 204
181 186
181 187
181 188
181 189
181 192
181 193
181 195
181 197
181 198
181 203
182 183
182 184
182 185
182 191
182 196
182 199
182 201
182 202
183 184
183 185
183 191
183 196
183 199
183 201
184 185
184 191
184 196
184 199
184 201
185 191
185 196
185 199
185 201
185 202
186 187
186 188
186 189
186 192
186 193
186 195
186 197
186 198
186 203
187 188
187 189
187 200
187 202
187 205
187 206
187 208
188 189
188 190
188 194
188 204
190 194
190 204
191 196
191 199
191 201
191 207
192 193
192 195
192 197
192 198
192 203
193 195
193 197
193 198
193 203
194 204
195 197
195 198
195 203
196 199
196 201
196 207
197 198
197 203
198 203
199 201
199 207
200 202
200 205
200 206
200 208
201 207
202 205
202 206
202 208
205 206
205 208
206 208
0
1
2 3
4 5
6 7
8
9
10
11 12
13 14
15
16 17
18 19
20 21
22
23
24 25
26 27
28
29
30 31
32
33
34
35
36 37
38 39
40
41
42 43
44 45
46
47
48
49
50
51 52
53
54
55
56
57 58
59 60
61 62
63 64
65 66
67
68 69
70
71
72
73
74
75 76
77 78
79
80 81
82 83
84
85 86
87
88
89 90
91
92
93
94
95 96
97
98
99
100
101
102 103
104
105 106
107
108
109
110
111 112
113 114
115
116
117 118
119 120
121 122
123 124
125
126
127
128
129
130 131
132
133 134
135 136
137
138
139 140
141
142 143
144
145 146
147
148 149
150
151 152
153 154
155
156 157
158 159
160
161
162
163 164
165
166
167
168 169
170
171
172
173
174
175 176
177 178
179
180
181 182
183
184
185 186
187 188
189
190 191
192
193
194
195
196 197
198 199
200 201
202 203
204 205
206
207 208
